
Log started (V20.1.0.0) Sun Aug  7 16:08:27 2022


Problem 'pp.lp' read.
Read time = 0.00 sec. (0.00 ticks)
Version identifier: 20.1.0.0 | 2020-11-10 | 9bedb6d68
Tried aggregator 1 time.
LP Presolve eliminated 1 rows and 1 columns.
Aggregator did 1 substitutions.
All rows and columns eliminated.
Presolve time = 0.00 sec. (0.00 ticks)

Dual simplex - Optimal:  Objective =  6.0000000000e+00
Solution time =    0.00 sec.  Iterations = 0 (0)
Deterministic time = 0.00 ticks  (1.62 ticks/sec)


Variable Name           Solution Value
x2                            3.000000
All other variables matching '*' are 0.

Log started (V20.1.0.0) Sun Aug  7 16:11:55 2022


Problem 'pd.lp' read.
Read time = 0.00 sec. (0.00 ticks)
Version identifier: 20.1.0.0 | 2020-11-10 | 9bedb6d68
Tried aggregator 1 time.
LP Presolve eliminated 2 rows and 2 columns.
All rows and columns eliminated.
Presolve time = 0.00 sec. (0.00 ticks)

Dual simplex - Optimal:  Objective =  6.0000000000e+00
Solution time =    0.00 sec.  Iterations = 0 (0)
Deterministic time = 0.00 ticks  (1.55 ticks/sec)


Variable Name           Solution Value
w2                            2.000000
All other variables matching '*' are 0.
Version identifier: 20.1.0.0 | 2020-11-10 | 9bedb6d68
Using devex.

Primal simplex - Optimal:  Objective =  6.0000000000e+00
Solution time =    0.00 sec.  Iterations = 0 (0)
Deterministic time = 0.00 ticks  (0.30 ticks/sec)


Variable Name           Solution Value
w2                            2.000000
All other variables matching '*' are 0.
